Route #1: 1 28 107 25 118 109 93 135 11 114 4 77 130 106 139 35 122 31 47 68 59 1
Route #2 1 49 88 2 112 61 73 9 44 115 111 54 103 7 32 99 80 108 6 87 42 94 3 79 18 117 1
Route #3 1 125 71 41 60 136 102 67 21 53 100 89 52 50 51 72 10 5 1
Route #4 1 110 33 8 20 121 98 17 37 26 119 129 128 85 69 131 14 1
Route #5 1 127 137 116 74 58 96 140 56 138 143 134 91 45 65 62 46 66 90 13 55 1
Route #6 1 86 36 92 57 84 29 19 48 97 63 34 126 22 24 133 105 82 75 101 12 1
Route #7 1 83 124 15 38 120 81 40 30 43 70 132 27 95 76 113 141 142 23 123 78 16 64 104 39 1
Cost: 17342